246 5
10 10 10 10 10 

0 0 0 0 0 0 4 2 14 26 38 
0 0 0 0 0 0 1 3 
10 0 3 0 0 0 1 4 
3 0 7 0 0 0 1 5 
6 0 7 0 0 0 2 7 6 
1 0 8 0 0 0 1 9 
8 0 9 0 0 0 1 8 
5 0 10 0 0 0 2 12 10 
1 0 6 0 0 0 3 12 10 92 
5 0 8 0 0 0 1 11 
3 0 9 0 0 0 1 13 
3 0 8 0 0 0 1 13 
0 0 0 0 0 0 1 50 
0 0 0 0 0 0 3 15 21 24 
4 0 0 0 0 5 2 20 16 
9 0 0 0 0 5 1 17 
4 0 0 0 0 6 2 18 33 
9 0 0 0 0 10 1 19 
1 0 0 0 0 10 1 22 
1 0 0 0 0 7 1 22 
8 0 0 0 0 9 1 22 
2 0 0 0 0 8 1 23 
1 0 0 0 0 10 1 25 
4 0 0 0 0 5 1 25 
0 0 0 0 0 0 1 50 
0 0 0 0 0 0 2 27 28 
7 0 1 0 0 0 2 35 29 
5 0 10 0 0 0 3 36 35 32 
2 0 10 0 0 0 1 30 
1 0 9 0 0 0 1 31 
8 0 7 0 0 0 2 32 203 
6 0 9 0 0 0 1 33 
6 0 8 0 0 0 1 34 
9 0 7 0 0 0 1 37 
1 0 8 0 0 0 1 37 
8 0 6 0 0 0 1 37 
0 0 0 0 0 0 1 50 
0 0 0 0 0 0 1 39 
8 3 0 0 0 0 2 41 40 
6 8 0 0 0 0 2 46 42 
6 10 0 0 0 0 2 44 43 
9 9 0 0 0 0 1 43 
6 6 0 0 0 0 1 45 
9 8 0 0 0 0 2 45 54 
2 6 0 0 0 0 1 47 
7 8 0 0 0 0 1 47 
7 7 0 0 0 0 1 48 
3 10 0 0 0 0 1 49 
0 0 0 0 0 0 1 50 
0 0 0 0 0 0 4 51 63 75 87 
0 0 0 0 0 0 2 52 53 
4 0 0 0 0 3 2 55 54 
7 0 0 0 0 6 1 54 
9 0 0 0 0 10 2 59 56 
7 0 0 0 0 10 2 59 56 
3 0 0 0 0 10 1 57 
8 0 0 0 0 10 1 58 
4 0 0 0 0 8 1 60 
8 0 0 0 0 5 1 60 
8 0 0 0 0 5 1 61 
5 0 0 0 0 8 1 62 
0 0 0 0 0 0 1 99 
0 0 0 0 0 0 3 64 66 73 
6 0 0 3 0 0 1 65 
3 0 0 8 0 0 2 72 67 
3 0 0 9 0 0 2 72 68 
6 0 0 7 0 0 1 68 
5 0 0 10 0 0 1 69 
7 0 0 6 0 0 1 70 
5 0 0 9 0 0 1 71 
4 0 0 9 0 0 1 74 
9 0 0 7 0 0 1 74 
10 0 0 7 0 0 1 74 
0 0 0 0 0 0 1 99 
0 0 0 0 0 0 1 76 
1 0 0 3 0 0 3 80 78 77 
3 0 0 10 0 0 1 79 
6 0 0 8 0 0 1 79 
10 0 0 10 0 0 2 83 81 
9 0 0 5 0 0 2 83 81 
2 0 0 7 0 0 1 82 
6 0 0 6 0 0 1 84 
1 0 0 9 0 0 1 84 
10 0 0 9 0 0 1 85 
7 0 0 8 0 0 1 86 
0 0 0 0 0 0 1 99 
0 0 0 0 0 0 3 88 91 97 
1 0 0 0 3 0 1 89 
10 0 0 0 8 0 2 96 90 
2 0 0 0 8 0 1 92 
2 0 0 0 5 0 2 96 94 
6 0 0 0 7 0 1 93 
4 0 0 0 7 0 1 94 
9 0 0 0 9 0 1 95 
5 0 0 0 8 0 1 98 
7 0 0 0 10 0 1 98 
1 0 0 0 10 0 1 98 
0 0 0 0 0 0 1 99 
0 0 0 0 0 0 4 100 112 124 136 
0 0 0 0 0 0 2 101 103 
10 0 1 0 0 0 1 102 
3 0 10 0 0 0 2 110 104 
4 0 10 0 0 0 2 110 105 
10 0 9 0 0 0 1 105 
7 0 7 0 0 0 2 108 106 
10 0 8 0 0 0 1 107 
5 0 8 0 0 0 1 109 
2 0 8 0 0 0 1 109 
7 0 6 0 0 0 1 111 
7 0 8 0 0 0 1 111 
0 0 0 0 0 0 1 148 
0 0 0 0 0 0 1 113 
5 0 0 3 0 0 2 116 114 
1 0 0 10 0 0 1 115 
9 0 0 6 0 0 2 119 117 
7 0 0 7 0 0 2 119 117 
7 0 0 6 0 0 1 118 
4 0 0 7 0 0 1 120 
5 0 0 10 0 0 1 120 
10 0 0 10 0 0 2 122 121 
1 0 0 8 0 0 1 123 
3 0 0 8 0 0 1 123 
0 0 0 0 0 0 1 148 
0 0 0 0 0 0 2 125 130 
4 0 0 0 3 0 2 134 126 
9 0 0 0 3 0 1 127 
3 0 0 0 10 0 1 128 
7 0 0 0 10 0 1 129 
7 0 0 0 9 0 2 133 131 
9 0 0 0 10 0 2 133 131 
6 0 0 0 8 0 1 132 
10 0 0 0 6 0 1 135 
9 0 0 0 7 0 1 135 
6 0 0 0 9 0 1 135 
0 0 0 0 0 0 1 148 
0 0 0 0 0 0 3 137 138 141 
7 0 0 0 0 4 2 145 139 
7 0 0 0 0 6 2 145 142 
1 0 0 0 0 7 1 140 
6 0 0 0 0 5 1 142 
2 0 0 0 0 10 1 142 
1 0 0 0 0 10 1 143 
3 0 0 0 0 7 1 144 
5 0 0 0 0 6 1 146 
5 0 0 0 0 10 1 146 
4 0 0 0 0 10 1 147 
0 0 0 0 0 0 1 148 
0 0 0 0 0 0 4 149 161 173 185 
0 0 0 0 0 0 1 150 
10 0 0 0 4 0 1 151 
4 0 0 0 6 0 2 155 152 
6 0 0 0 8 0 1 153 
5 0 0 0 8 0 1 154 
6 0 0 0 10 0 2 157 156 
4 0 0 0 4 0 2 158 156 
6 0 0 0 6 0 1 159 
3 0 0 0 10 0 1 158 
6 0 0 0 9 0 1 160 
8 0 0 0 10 0 1 160 
0 0 0 0 0 0 1 197 
0 0 0 0 0 0 1 162 
9 4 0 0 0 0 1 163 
5 7 0 0 0 0 2 167 164 
1 5 0 0 0 0 1 165 
1 4 0 0 0 0 2 171 166 
1 8 0 0 0 0 2 169 168 
10 10 0 0 0 0 2 171 169 
8 10 0 0 0 0 1 170 
4 7 0 0 0 0 1 172 
9 10 0 0 0 0 1 172 
4 10 0 0 0 0 1 172 
0 0 0 0 0 0 1 197 
0 0 0 0 0 0 3 174 178 180 
5 0 0 3 0 0 1 175 
10 0 0 10 0 0 2 183 176 
4 0 0 4 0 0 1 177 
5 0 0 10 0 0 1 179 
8 0 0 10 0 0 2 183 182 
2 0 0 7 0 0 1 181 
1 0 0 7 0 0 1 181 
10 0 0 9 0 0 1 182 
3 0 0 7 0 0 1 184 
7 0 0 8 0 0 1 184 
0 0 0 0 0 0 1 197 
0 0 0 0 0 0 1 186 
4 0 0 0 0 2 1 187 
2 0 0 0 0 6 2 190 188 
1 0 0 0 0 10 2 192 189 
2 0 0 0 0 7 2 193 191 
2 0 0 0 0 10 2 194 193 
10 0 0 0 0 8 1 194 
8 0 0 0 0 9 1 193 
4 0 0 0 0 6 1 195 
5 0 0 0 0 9 1 195 
9 0 0 0 0 8 1 196 
0 0 0 0 0 0 1 197 
0 0 0 0 0 0 4 198 210 222 234 
0 0 0 0 0 0 1 199 
5 3 0 0 0 0 1 200 
4 8 0 0 0 0 3 206 204 201 
8 8 0 0 0 0 1 202 
1 7 0 0 0 0 1 203 
5 7 0 0 0 0 2 208 205 
5 9 0 0 0 0 2 208 207 
6 9 0 0 0 0 1 207 
5 8 0 0 0 0 1 207 
6 6 0 0 0 0 1 209 
7 10 0 0 0 0 1 209 
0 0 0 0 0 0 1 246 
0 0 0 0 0 0 1 211 
3 0 0 6 0 0 2 214 212 
8 0 0 7 0 0 1 213 
4 0 0 6 0 0 1 215 
2 0 0 7 0 0 1 215 
6 0 0 7 0 0 2 217 216 
8 0 0 7 0 0 2 220 218 
1 0 0 10 0 0 2 220 218 
5 0 0 8 0 0 1 219 
7 0 0 10 0 0 1 221 
5 0 0 7 0 0 1 221 
0 0 0 0 0 0 1 246 
0 0 0 0 0 0 2 223 224 
2 0 6 0 0 0 2 230 225 
7 0 6 0 0 0 1 225 
8 0 9 0 0 0 2 229 226 
10 0 6 0 0 0 1 227 
2 0 6 0 0 0 1 228 
8 0 10 0 0 0 1 231 
9 0 6 0 0 0 1 231 
2 0 10 0 0 0 1 231 
10 0 6 0 0 0 1 232 
2 0 10 0 0 0 1 233 
0 0 0 0 0 0 1 246 
0 0 0 0 0 0 2 235 238 
9 0 4 0 0 0 2 244 236 
6 0 9 0 0 0 1 237 
8 0 4 0 0 0 2 243 239 
4 0 9 0 0 0 2 243 239 
2 0 5 0 0 0 1 240 
8 0 7 0 0 0 1 241 
9 0 10 0 0 0 1 242 
9 0 10 0 0 0 1 245 
6 0 9 0 0 0 1 245 
7 0 8 0 0 0 1 245 
0 0 0 0 0 0 1 246 
0 0 0 0 0 0 0 
